c Generated map
c Size: 9 * 9, weights in range: 1 to 10, walls: True, with ratio 0.05
c dim 6 of 8
c
p sp 81 129
c graph contains 81 nodes and 129 arcs
c
a 1 10 9
a 10 1 9
a 1 2 6
a 2 1 6
a 2 11 2
a 11 2 2
a 4 5 2
a 5 4 2
a 5 14 3
a 14 5 3
a 5 6 1
a 6 5 1
a 6 15 6
a 15 6 6
a 6 7 2
a 7 6 2
a 7 16 10
a 16 7 10
a 7 8 1
a 8 7 1
a 8 17 3
a 17 8 3
a 8 9 2
a 9 8 2
a 9 18 4
a 18 9 4
a 10 19 3
a 19 10 3
a 10 11 6
a 11 10 6
a 11 20 10
a 20 11 10
a 11 12 5
a 12 11 5
a 12 21 2
a 21 12 2
a 14 23 6
a 23 14 6
a 14 15 8
a 15 14 8
a 15 24 9
a 24 15 9
a 15 16 2
a 16 15 2
a 16 25 1
a 25 16 1
a 16 17 5
a 17 16 5
a 17 26 8
a 26 17 8
a 17 18 10
a 18 17 10
a 18 27 9
a 27 18 9
a 19 28 1
a 28 19 1
a 19 20 9
a 20 19 9
a 20 29 1
a 29 20 1
a 20 21 6
a 21 20 6
a 21 30 6
a 30 21 6
a 21 22 10
a 22 21 10
a 22 31 8
a 31 22 8
a 22 23 5
a 23 22 5
a 23 32 10
a 32 23 10
a 23 24 5
a 24 23 5
a 24 33 3
a 33 24 3
a 24 25 10
a 25 24 10
a 25 34 3
a 34 25 3
a 25 26 5
a 26 25 5
a 26 35 5
a 35 26 5
a 26 27 6
a 27 26 6
a 27 36 8
a 36 27 8
a 28 37 2
a 37 28 2
a 28 29 4
a 29 28 4
a 29 38 2
a 38 29 2
a 29 30 2
a 30 29 2
a 30 39 10
a 39 30 10
a 30 31 7
a 31 30 7
a 31 40 1
a 40 31 1
a 31 32 10
a 32 31 10
a 32 41 9
a 41 32 9
a 32 33 8
a 33 32 8
a 33 42 3
a 42 33 3
a 33 34 5
a 34 33 5
a 34 43 8
a 43 34 8
a 34 35 7
a 35 34 7
a 35 44 10
a 44 35 10
a 35 36 8
a 36 35 8
a 36 45 4
a 45 36 4
a 37 46 8
a 46 37 8
a 37 38 10
a 38 37 10
a 38 39 1
a 39 38 1
a 39 48 5
a 48 39 5
a 39 40 3
a 40 39 3
a 40 49 8
a 49 40 8
a 40 41 6
a 41 40 6
a 41 50 10
a 50 41 10
a 41 42 7
a 42 41 7
a 42 51 6
a 51 42 6
a 42 43 1
a 43 42 1
a 43 52 5
a 52 43 5
a 43 44 5
a 44 43 5
a 44 53 8
a 53 44 8
a 44 45 3
a 45 44 3
a 45 54 5
a 54 45 5
a 46 55 2
a 55 46 2
a 48 57 2
a 57 48 2
a 48 49 2
a 49 48 2
a 49 58 8
a 58 49 8
a 49 50 1
a 50 49 1
a 50 59 6
a 59 50 6
a 50 51 4
a 51 50 4
a 51 60 6
a 60 51 6
a 51 52 3
a 52 51 3
a 52 61 7
a 61 52 7
a 52 53 7
a 53 52 7
a 53 62 8
a 62 53 8
a 53 54 6
a 54 53 6
a 54 63 10
a 63 54 10
a 55 64 2
a 64 55 2
a 55 56 5
a 56 55 5
a 56 65 7
a 65 56 7
a 56 57 1
a 57 56 1
a 57 66 4
a 66 57 4
a 57 58 9
a 58 57 9
a 58 59 5
a 59 58 5
a 59 68 6
a 68 59 6
a 59 60 9
a 60 59 9
a 60 69 5
a 69 60 5
a 60 61 8
a 61 60 8
a 61 70 7
a 70 61 7
a 61 62 8
a 62 61 8
a 62 71 5
a 71 62 5
a 62 63 9
a 63 62 9
a 63 72 8
a 72 63 8
a 64 73 5
a 73 64 5
a 64 65 9
a 65 64 9
a 65 74 5
a 74 65 5
a 65 66 6
a 66 65 6
a 66 75 7
a 75 66 7
a 68 77 5
a 77 68 5
a 68 69 6
a 69 68 6
a 69 78 1
a 78 69 1
a 69 70 8
a 70 69 8
a 70 79 10
a 79 70 10
a 70 71 1
a 71 70 1
a 71 80 7
a 80 71 7
a 71 72 6
a 72 71 6
a 72 81 2
a 81 72 2
a 73 74 1
a 74 73 1
a 74 75 2
a 75 74 2
a 75 76 8
a 76 75 8
a 76 77 9
a 77 76 9
a 77 78 7
a 78 77 7
a 78 79 3
a 79 78 3
a 79 80 10
a 80 79 10
a 80 81 8
a 81 80 8
